
(set-logic HORN)
(declare-fun zero_109 () Int)
(declare-fun succ_106 (Int) Int)
(declare-datatypes ((Bool_262 0)) (((false_262) (true_262))))
(declare-fun diseqBool_121 (Bool_262 Bool_262) Bool)
(declare-fun isfalse_121 (Bool_262) Bool)
(declare-fun istrue_121 (Bool_262) Bool)
(assert (isfalse_121 false_262))
(assert (istrue_121 true_262))
(assert (diseqBool_121 false_262 true_262))
(assert (diseqBool_121 true_262 false_262))
(declare-fun and_262 (Bool_262 Bool_262 Bool_262) Bool)
(declare-fun or_267 (Bool_262 Bool_262 Bool_262) Bool)
(declare-fun hence_262 (Bool_262 Bool_262 Bool_262) Bool)
(declare-fun not_265 (Bool_262 Bool_262) Bool)
(assert (and_262 false_262 false_262 false_262))
(assert (and_262 false_262 true_262 false_262))
(assert (and_262 false_262 false_262 true_262))
(assert (and_262 true_262 true_262 true_262))
(assert (or_267 false_262 false_262 false_262))
(assert (or_267 true_262 true_262 false_262))
(assert (or_267 true_262 false_262 true_262))
(assert (or_267 true_262 true_262 true_262))
(assert (hence_262 true_262 false_262 false_262))
(assert (hence_262 false_262 true_262 false_262))
(assert (hence_262 true_262 false_262 true_262))
(assert (hence_262 true_262 true_262 true_262))
(assert (not_265 true_262 false_262))
(assert (not_265 false_262 true_262))
(declare-fun diseqInt (Int Int) Bool)
(declare-fun p_308 (Int Int) Bool)
(declare-fun iszero_106 (Int) Bool)
(declare-fun issucc_106 (Int) Bool)
(assert (forall ((x_49475 Int))
	(p_308 x_49475 (succ_106 x_49475))))
(assert (iszero_106 zero_109))
(assert (forall ((x_49477 Int))
	(issucc_106 (succ_106 x_49477))))
(assert (forall ((x_49478 Int))
	(diseqInt zero_109 (succ_106 x_49478))))
(assert (forall ((x_49479 Int))
	(diseqInt (succ_106 x_49479) zero_109)))
(assert (forall ((x_49480 Int) (x_49481 Int))
	(=> (diseqInt x_49480 x_49481) (diseqInt (succ_106 x_49480) (succ_106 x_49481)))))
(declare-datatypes ((Tree_7 0)) (((TNode_3 (projTNode_18 Tree_7) (projTNode_19 Int) (projTNode_20 Tree_7)) (TNil_3))))
(declare-fun diseqTree_7 (Tree_7 Tree_7) Bool)
(declare-fun projTNode_21 (Tree_7 Tree_7) Bool)
(declare-fun projTNode_22 (Int Tree_7) Bool)
(declare-fun projTNode_23 (Tree_7 Tree_7) Bool)
(declare-fun isTNode_3 (Tree_7) Bool)
(declare-fun isTNil_3 (Tree_7) Bool)
(assert (forall ((x_49482 Tree_7) (x_49483 Int) (x_49484 Tree_7))
	(projTNode_21 x_49482 (TNode_3 x_49482 x_49483 x_49484))))
(assert (forall ((x_49482 Tree_7) (x_49483 Int) (x_49484 Tree_7))
	(projTNode_22 x_49483 (TNode_3 x_49482 x_49483 x_49484))))
(assert (forall ((x_49482 Tree_7) (x_49483 Int) (x_49484 Tree_7))
	(projTNode_23 x_49484 (TNode_3 x_49482 x_49483 x_49484))))
(assert (forall ((x_49487 Tree_7) (x_49488 Int) (x_49489 Tree_7))
	(isTNode_3 (TNode_3 x_49487 x_49488 x_49489))))
(assert (isTNil_3 TNil_3))
(assert (forall ((x_49490 Tree_7) (x_49491 Int) (x_49492 Tree_7))
	(diseqTree_7 (TNode_3 x_49490 x_49491 x_49492) TNil_3)))
(assert (forall ((x_49493 Tree_7) (x_49494 Int) (x_49495 Tree_7))
	(diseqTree_7 TNil_3 (TNode_3 x_49493 x_49494 x_49495))))
(assert (forall ((x_49496 Tree_7) (x_49497 Int) (x_49498 Tree_7) (x_49499 Tree_7) (x_49500 Int) (x_49501 Tree_7))
	(=> (diseqTree_7 x_49496 x_49499) (diseqTree_7 (TNode_3 x_49496 x_49497 x_49498) (TNode_3 x_49499 x_49500 x_49501)))))
(assert (forall ((x_49496 Tree_7) (x_49497 Int) (x_49498 Tree_7) (x_49499 Tree_7) (x_49500 Int) (x_49501 Tree_7))
	(=> (diseqInt x_49497 x_49500) (diseqTree_7 (TNode_3 x_49496 x_49497 x_49498) (TNode_3 x_49499 x_49500 x_49501)))))
(assert (forall ((x_49496 Tree_7) (x_49497 Int) (x_49498 Tree_7) (x_49499 Tree_7) (x_49500 Int) (x_49501 Tree_7))
	(=> (diseqTree_7 x_49498 x_49501) (diseqTree_7 (TNode_3 x_49496 x_49497 x_49498) (TNode_3 x_49499 x_49500 x_49501)))))
(declare-datatypes ((list_187 0)) (((nil_213) (cons_187 (head_374 Int) (tail_374 list_187)))))
(declare-fun diseqlist_187 (list_187 list_187) Bool)
(declare-fun head_375 (Int list_187) Bool)
(declare-fun tail_375 (list_187 list_187) Bool)
(declare-fun isnil_213 (list_187) Bool)
(declare-fun iscons_187 (list_187) Bool)
(assert (forall ((x_49503 Int) (x_49504 list_187))
	(head_375 x_49503 (cons_187 x_49503 x_49504))))
(assert (forall ((x_49503 Int) (x_49504 list_187))
	(tail_375 x_49504 (cons_187 x_49503 x_49504))))
(assert (isnil_213 nil_213))
(assert (forall ((x_49506 Int) (x_49507 list_187))
	(iscons_187 (cons_187 x_49506 x_49507))))
(assert (forall ((x_49508 Int) (x_49509 list_187))
	(diseqlist_187 nil_213 (cons_187 x_49508 x_49509))))
(assert (forall ((x_49510 Int) (x_49511 list_187))
	(diseqlist_187 (cons_187 x_49510 x_49511) nil_213)))
(assert (forall ((x_49512 Int) (x_49513 list_187) (x_49514 Int) (x_49515 list_187))
	(=> (diseqInt x_49512 x_49514) (diseqlist_187 (cons_187 x_49512 x_49513) (cons_187 x_49514 x_49515)))))
(assert (forall ((x_49512 Int) (x_49513 list_187) (x_49514 Int) (x_49515 list_187))
	(=> (diseqlist_187 x_49513 x_49515) (diseqlist_187 (cons_187 x_49512 x_49513) (cons_187 x_49514 x_49515)))))
(declare-fun plus_109 (Int Int Int) Bool)
(assert (forall ((x_49430 Int) (z_1552 Int) (y_1734 Int))
	(=> (plus_109 x_49430 z_1552 y_1734) (plus_109 (succ_106 x_49430) (succ_106 z_1552) y_1734))))
(assert (forall ((x_49431 Int))
	(plus_109 x_49431 zero_109 x_49431)))
(declare-fun leq_39 (Bool_262 Int Int) Bool)
(assert (forall ((x_49432 Bool_262) (x_49418 Int) (z_1553 Int))
	(=> (leq_39 x_49432 z_1553 x_49418) (leq_39 x_49432 (succ_106 z_1553) (succ_106 x_49418)))))
(assert (forall ((z_1553 Int))
	(leq_39 false_262 (succ_106 z_1553) zero_109)))
(assert (forall ((y_1735 Int))
	(leq_39 true_262 zero_109 y_1735)))
(declare-fun flatten_8 (list_187 Tree_7 list_187) Bool)
(assert (forall ((x_49436 list_187))
	(flatten_8 x_49436 TNil_3 x_49436)))
(assert (forall ((x_49437 list_187) (x_49438 list_187) (q_109 Tree_7) (z_1554 Int) (r_327 Tree_7) (y_1736 list_187))
	(=> (and (flatten_8 x_49438 r_327 y_1736) (flatten_8 x_49437 q_109 (cons_187 z_1554 x_49438))) (flatten_8 x_49437 (TNode_3 q_109 z_1554 r_327) y_1736))))
(declare-fun count_28 (Int Int list_187) Bool)
(assert (forall ((x_49440 Int) (x_49441 Int) (ys_164 list_187) (x_49420 Int))
	(=> (and (count_28 x_49441 x_49420 ys_164) (plus_109 x_49440 (succ_106 zero_109) x_49441)) (count_28 x_49440 x_49420 (cons_187 x_49420 ys_164)))))
(assert (forall ((x_49443 Int) (z_1555 Int) (ys_164 list_187) (x_49420 Int))
	(=> (and (diseqInt x_49420 z_1555) (count_28 x_49443 x_49420 ys_164)) (count_28 x_49443 x_49420 (cons_187 z_1555 ys_164)))))
(assert (forall ((x_49420 Int))
	(count_28 zero_109 x_49420 nil_213)))
(declare-fun add_281 (Tree_7 Int Tree_7) Bool)
(assert (forall ((x_49421 Int))
	(add_281 (TNode_3 TNil_3 x_49421 TNil_3) x_49421 TNil_3)))
(assert (forall ((x_49449 Tree_7) (q_110 Tree_7) (z_1556 Int) (r_328 Tree_7) (x_49421 Int))
	(=> (and (add_281 x_49449 x_49421 q_110) (leq_39 true_262 x_49421 z_1556)) (add_281 (TNode_3 x_49449 z_1556 r_328) x_49421 (TNode_3 q_110 z_1556 r_328)))))
(assert (forall ((x_49452 Tree_7) (q_110 Tree_7) (z_1556 Int) (r_328 Tree_7) (x_49421 Int))
	(=> (and (add_281 x_49452 x_49421 r_328) (leq_39 false_262 x_49421 z_1556)) (add_281 (TNode_3 q_110 z_1556 x_49452) x_49421 (TNode_3 q_110 z_1556 r_328)))))
(declare-fun toTree_3 (Tree_7 list_187) Bool)
(assert (forall ((x_49453 Tree_7) (x_49454 Tree_7) (y_1739 Int) (xs_515 list_187))
	(=> (and (toTree_3 x_49454 xs_515) (add_281 x_49453 y_1739 x_49454)) (toTree_3 x_49453 (cons_187 y_1739 xs_515)))))
(assert (toTree_3 TNil_3 nil_213))
(declare-fun tsort_3 (list_187 list_187) Bool)
(assert (forall ((x_49457 list_187) (x_49458 Tree_7) (x_49423 list_187))
	(=> (and (toTree_3 x_49458 x_49423) (flatten_8 x_49457 x_49458 nil_213)) (tsort_3 x_49457 x_49423))))
(assert (forall ((x_49460 Int) (x_49461 Int) (x_49462 Int) (x_49463 Int) (x_49424 Int) (y_1740 Int) (z_1557 Int))
	(=> (and true (diseqInt x_49461 x_49463) (plus_109 x_49460 y_1740 z_1557) (plus_109 x_49461 x_49424 x_49460) (plus_109 x_49462 x_49424 y_1740) (plus_109 x_49463 x_49462 z_1557)) false)))
(assert (forall ((x_49464 Int) (x_49465 Int) (x_49425 Int) (y_1741 Int))
	(=> (and true (diseqInt x_49464 x_49465) (plus_109 x_49464 x_49425 y_1741) (plus_109 x_49465 y_1741 x_49425)) false)))
(assert (forall ((x_49466 Int) (x_49426 Int))
	(=> (and true (diseqInt x_49466 x_49426) (plus_109 x_49466 x_49426 zero_109)) false)))
(assert (forall ((x_49467 Int) (x_49427 Int))
	(=> (and true (diseqInt x_49467 x_49427) (plus_109 x_49467 zero_109 x_49427)) false)))
(assert (forall ((x_49468 list_187) (x_49469 Int) (x_49470 Int) (x_49428 Int) (xs_516 list_187))
	(=> (and true (diseqInt x_49469 x_49470) (tsort_3 x_49468 xs_516) (count_28 x_49469 x_49428 x_49468) (count_28 x_49470 x_49428 xs_516)) false)))
(check-sat)
